cnf-files/prime-factorization/prime-factorization-3656158440062976.cnf
p cnf 2813
-3 -871
-4 872
-5 873
-6 874
-7 875
-8 876
-9 877
-10 878
-11 879
-12 880
-13 881
-14 882
-15 883
-16 884
-17 885
-18 886
-19 887
-20 888
-21 889
-22 890
-23 891
-24 892
-25 893
-26 894
-27 895
-28 896
-29 897
-30 898
-31 899
-32 900
-33 901
-34 902
-35 903
-36 904
-37 905
-38 906
-39 907
-40 908
-41 909
-42 910
-43 911
-44 912
-45 913
-46 914
-47 915
-48 916
-49 917
-50 918
-51 919
-52 920
-53 921
-54 922
-55 -3
-55 -4
3 4 55
-56 -5
-56 -6
5 6 56
-57 -7
-57 -8
7 8 57
-58 -9
-58 -10
9 10 58
-59 -11
-59 -12
11 12 59
-60 -13
-60 -14
13 14 60
-61 -15
-61 -16
15 16 61
-62 -17
-62 -18
17 18 62
-63 -19
-63 -20
19 20 63
-64 -21
-64 -22
21 22 64
-65 -23
-65 -24
23 24 65
-66 -25
-66 -26
25 26 66
-67 -27
-67 -28
27 28 67
-68 -29
-68 -30
29 30 68
-69 -31
-69 -32
31 32 69
-70 -33
-70 -34
33 34 70
-71 -35
-71 -36
35 36 71
-72 -37
-72 -38
37 38 72
-73 -39
-73 -40
39 40 73
-74 -41
-74 -42
41 42 74
-75 -43
-75 -44
43 44 75
-76 -45
-76 -46
45 46 76
-77 -47
-77 -48
47 48 77
-78 -49
-78 -50
49 50 78
-79 -51
-79 -52
51 52 79
-80 -53
-80 -54
53 54 80
-81 55
-81 56
-55 -56 81
-82 57
-82 58
-57 -58 82
-83 59
-83 60
-59 -60 83
-84 61
-84 62
-61 -62 84
-85 63
-85 64
-63 -64 85
-86 65
-86 66
-65 -66 86
-87 67
-87 68
-67 -68 87
-88 69
-88 70
-69 -70 88
-89 71
-89 72
-71 -72 89
-90 73
-90 74
-73 -74 90
-91 75
-91 76
-75 -76 91
-92 77
-92 78
-77 -78 92
-93 79
-93 80
-79 -80 93
-94 81
-94 82
-81 -82 94
-95 83
-95 84
-83 -84 95
-96 85
-96 86
-85 -86 96
-97 87
-97 88
-87 -88 97
-98 89
-98 90
-89 -90 98
-99 91
-99 92
-91 -92 99
-100 94
-100 95
-94 -95 100
-101 96
-101 97
-96 -97 101
-102 98
-102 99
-98 -99 102
-103 100
-103 101
-100 -101 103
-104 93
-104 102
-93 -102 104
-105 103
-105 104
-103 -104 105
-106 1
-106 3
-1 -3 106
-107 2
-107 3
-2 -3 107
-108 1
-108 4
-1 -4 108
-109 2
-109 4
-2 -4 109
-110 107
-110 -108
-107 108 110
-111 -107
-111 108
107 -108 111
-112 -110
-112 -111
110 111 112
-113 107
-113 108
-107 -108 113
-114 109
-114 -113
-109 113 114
-115 -109
-115 113
109 -113 115
-116 -114
-116 -115
114 115 116
-117 109
-117 113
-109 -113 117
-118 1
-118 5
-1 -5 118
-119 2
-119 5
-2 -5 119
-120 -116
-120 -118
116 118 120
-121 116
-121 118
-116 -118 121
-122 -120
-122 -121
120 121 122
-123 -116
-123 118
116 -118 123
-124 117
-124 -119
-117 119 124
-125 -117
-125 119
117 -119 125
-126 -124
-126 -125
124 125 126
-127 117
-127 119
-117 -119 127
-128 -123
-128 -126
123 126 128
-129 123
-129 126
-123 -126 129
-130 -128
-130 -129
128 129 130
-131 123
-131 -126
-123 126 131
-132 -127
-132 -131
127 131 132
-133 1
-133 6
-1 -6 133
-134 2
-134 6
-2 -6 134
-135 -130
-135 -133
130 133 135
-136 130
-136 133
-130 -133 136
-137 -135
-137 -136
135 136 137
-138 -130
-138 133
130 -133 138
-139 -132
-139 -134
132 134 139
-140 132
-140 134
-132 -134 140
-141 -139
-141 -140
139 140 141
-142 -132
-142 134
132 -134 142
-143 -138
-143 -141
138 141 143
-144 138
-144 141
-138 -141 144
-145 -143
-145 -144
143 144 145
-146 138
-146 -141
-138 141 146
-147 -142
-147 -146
142 146 147
-148 1
-148 7
-1 -7 148
-149 2
-149 7
-2 -7 149
-150 -145
-150 -148
145 148 150
-151 145
-151 148
-145 -148 151
-152 -150
-152 -151
150 151 152
-153 -145
-153 148
145 -148 153
-154 -147
-154 -149
147 149 154
-155 147
-155 149
-147 -149 155
-156 -154
-156 -155
154 155 156
-157 -147
-157 149
147 -149 157
-158 -153
-158 -156
153 156 158
-159 153
-159 156
-153 -156 159
-160 -158
-160 -159
158 159 160
-161 153
-161 -156
-153 156 161
-162 -157
-162 -161
157 161 162
-163 1
-163 8
-1 -8 163
-164 2
-164 8
-2 -8 164
-165 -160
-165 -163
160 163 165
-166 160
-166 163
-160 -163 166
-167 -165
-167 -166
165 166 167
-168 -160
-168 163
160 -163 168
-169 -162
-169 -164
162 164 169
-170 162
-170 164
-162 -164 170
-171 -169
-171 -170
169 170 171
-172 -162
-172 164
162 -164 172
-173 -168
-173 -171
168 171 173
-174 168
-174 171
-168 -171 174
-175 -173
-175 -174
173 174 175
-176 168
-176 -171
-168 171 176
-177 -172
-177 -176
172 176 177
-178 1
-178 9
-1 -9 178
-179 2
-179 9
-2 -9 179
-180 -175
-180 -178
175 178 180
-181 175
-181 178
-175 -178 181
-182 -180
-182 -181
180 181 182
-183 -175
-183 178
175 -178 183
-184 -177
-184 -179
177 179 184
-185 177
-185 179
-177 -179 185
-186 -184
-186 -185
184 185 186
-187 -177
-187 179
177 -179 187
-188 -183
-188 -186
183 186 188
-189 183
-189 186
-183 -186 189
-190 -188
-190 -189
188 189 190
-191 183
-191 -186
-183 186 191
-192 -187
-192 -191
187 191 192
-193 1
-193 10
-1 -10 193
-194 2
-194 10
-2 -10 194
-195 -190
-195 -193
190 193 195
-196 190
-196 193
-190 -193 196
-197 -195
-197 -196
195 196 197
-198 -190
-198 193
190 -193 198
-199 -192
-199 -194
192 194 199
-200 192
-200 194
-192 -194 200
-201 -199
-201 -200
199 200 201
-202 -192
-202 194
192 -194 202
-203 -198
-203 -201
198 201 203
-204 198
-204 201
-198 -201 204
-205 -203
-205 -204
203 204 205
-206 198
-206 -201
-198 201 206
-207 -202
-207 -206
202 206 207
-208 1
-208 11
-1 -11 208
-209 2
-209 11
-2 -11 209
-210 -205
-210 -208
205 208 210
-211 205
-211 208
-205 -208 211
-212 -210
-212 -211
210 211 212
-213 -205
-213 208
205 -208 213
-214 -207
-214 -209
207 209 214
-215 207
-215 209
-207 -209 215
-216 -214
-216 -215
214 215 216
-217 -207
-217 209
207 -209 217
-218 -213
-218 -216
213 216 218
-219 213
-219 216
-213 -216 219
-220 -218
-220 -219
218 219 220
-221 213
-221 -216
-213 216 221
-222 -217
-222 -221
217 221 222
-223 1
-223 12
-1 -12 223
-224 2
-224 12
-2 -12 224
-225 -220
-225 -223
220 223 225
-226 220
-226 223
-220 -223 226
-227 -225
-227 -226
225 226 227
-228 -220
-228 223
220 -223 228
-229 -222
-229 -224
222 224 229
-230 222
-230 224
-222 -224 230
-231 -229
-231 -230
229 230 231
-232 -222
-232 224
222 -224 232
-233 -228
-233 -231
228 231 233
-234 228
-234 231
-228 -231 234
-235 -233
-235 -234
233 234 235
-236 228
-236 -231
-228 231 236
-237 -232
-237 -236
232 236 237
-238 1
-238 13
-1 -13 238
-239 2
-239 13
-2 -13 239
-240 -235
-240 -238
235 238 240
-241 235
-241 238
-235 -238 241
-242 -240
-242 -241
240 241 242
-243 -235
-243 238
235 -238 243
-244 -237
-244 -239
237 239 244
-245 237
-245 239
-237 -239 245
-246 -244
-246 -245
244 245 246
-247 -237
-247 239
237 -239 247
-248 -243
-248 -246
243 246 248
-249 243
-249 246
-243 -246 249
-250 -248
-250 -249
248 249 250
-251 243
-251 -246
-243 246 251
-252 -247
-252 -251
247 251 252
-253 1
-253 14
-1 -14 253
-254 2
-254 14
-2 -14 254
-255 -250
-255 -253
250 253 255
-256 250
-256 253
-250 -253 256
-257 -255
-257 -256
255 256 257
-258 -250
-258 253
250 -253 258
-259 -252
-259 -254
252 254 259
-260 252
-260 254
-252 -254 260
-261 -259
-261 -260
259 260 261
-262 -252
-262 254
252 -254 262
-263 -258
-263 -261
258 261 263
-264 258
-264 261
-258 -261 264
-265 -263
-265 -264
263 264 265
-266 258
-266 -261
-258 261 266
-267 -262
-267 -266
262 266 267
-268 1
-268 15
-1 -15 268
-269 2
-269 15
-2 -15 269
-270 -265
-270 -268
265 268 270
-271 265
-271 268
-265 -268 271
-272 -270
-272 -271
270 271 272
-273 -265
-273 268
265 -268 273
-274 -267
-274 -269
267 269 274
-275 267
-275 269
-267 -269 275
-276 -274
-276 -275
274 275 276
-277 -267
-277 269
267 -269 277
-278 -273
-278 -276
273 276 278
-279 273
-279 276
-273 -276 279
-280 -278
-280 -279
278 279 280
-281 273
-281 -276
-273 276 281
-282 -277
-282 -281
277 281 282
-283 1
-283 16
-1 -16 283
-284 2
-284 16
-2 -16 284
-285 -280
-285 -283
280 283 285
-286 280
-286 283
-280 -283 286
-287 -285
-287 -286
285 286 287
-288 -280
-288 283
280 -283 288
-289 -282
-289 -284
282 284 289
-290 282
-290 284
-282 -284 290
-291 -289
-291 -290
289 290 291
-292 -282
-292 284
282 -284 292
-293 -288
-293 -291
288 291 293
-294 288
-294 291
-288 -291 294
-295 -293
-295 -294
293 294 295
-296 288
-296 -291
-288 291 296
-297 -292
-297 -296
292 296 297
-298 1
-298 17
-1 -17 298
-299 2
-299 17
-2 -17 299
-300 -295
-300 -298
295 298 300
-301 295
-301 298
-295 -298 301
-302 -300
-302 -301
300 301 302
-303 -295
-303 298
295 -298 303
-304 -297
-304 -299
297 299 304
-305 297
-305 299
-297 -299 305
-306 -304
-306 -305
304 305 306
-307 -297
-307 299
297 -299 307
-308 -303
-308 -306
303 306 308
-309 303
-309 306
-303 -306 309
-310 -308
-310 -309
308 309 310
-311 303
-311 -306
-303 306 311
-312 -307
-312 -311
307 311 312
-313 1
-313 18
-1 -18 313
-314 2
-314 18
-2 -18 314
-315 -310
-315 -313
310 313 315
-316 310
-316 313
-310 -313 316
-317 -315
-317 -316
315 316 317
-318 -310
-318 313
310 -313 318
-319 -312
-319 -314
312 314 319
-320 312
-320 314
-312 -314 320
-321 -319
-321 -320
319 320 321
-322 -312
-322 314
312 -314 322
-323 -318
-323 -321
318 321 323
-324 318
-324 321
-318 -321 324
-325 -323
-325 -324
323 324 325
-326 318
-326 -321
-318 321 326
-327 -322
-327 -326
322 326 327
-328 1
-328 19
-1 -19 328
-329 2
-329 19
-2 -19 329
-330 -325
-330 -328
325 328 330
-331 325
-331 328
-325 -328 331
-332 -330
-332 -331
330 331 332
-333 -325
-333 328
325 -328 333
-334 -327
-334 -329
327 329 334
-335 327
-335 329
-327 -329 335
-336 -334
-336 -335
334 335 336
-337 -327
-337 329
327 -329 337
-338 -333
-338 -336
333 336 338
-339 333
-339 336
-333 -336 339
-340 -338
-340 -339
338 339 340
-341 333
-341 -336
-333 336 341
-342 -337
-342 -341
337 341 342
-343 1
-343 20
-1 -20 343
-344 2
-344 20
-2 -20 344
-345 -340
-345 -343
340 343 345
-346 340
-346 343
-340 -343 346
-347 -345
-347 -346
345 346 347
-348 -340
-348 343
340 -343 348
-349 -342
-349 -344
342 344 349
-350 342
-350 344
-342 -344 350
-351 -349
-351 -350
349 350 351
-352 -342
-352 344
342 -344 352
-353 -348
-353 -351
348 351 353
-354 348
-354 351
-348 -351 354
-355 -353
-355 -354
353 354 355
-356 348
-356 -351
-348 351 356
-357 -352
-357 -356
352 356 357
-358 1
-358 21
-1 -21 358
-359 2
-359 21
-2 -21 359
-360 -355
-360 -358
355 358 360
-361 355
-361 358
-355 -358 361
-362 -360
-362 -361
360 361 362
-363 -355
-363 358
355 -358 363
-364 -357
-364 -359
357 359 364
-365 357
-365 359
-357 -359 365
-366 -364
-366 -365
364 365 366
-367 -357
-367 359
357 -359 367
-368 -363
-368 -366
363 366 368
-369 363
-369 366
-363 -366 369
-370 -368
-370 -369
368 369 370
-371 363
-371 -366
-363 366 371
-372 -367
-372 -371
367 371 372
-373 1
-373 22
-1 -22 373
-374 2
-374 22
-2 -22 374
-375 -370
-375 -373
370 373 375
-376 370
-376 373
-370 -373 376
-377 -375
-377 -376
375 376 377
-378 -370
-378 373
370 -373 378
-379 -372
-379 -374
372 374 379
-380 372
-380 374
-372 -374 380
-381 -379
-381 -380
379 380 381
-382 -372
-382 374
372 -374 382
-383 -378
-383 -381
378 381 383
-384 378
-384 381
-378 -381 384
-385 -383
-385 -384
383 384 385
-386 378
-386 -381
-378 381 386
-387 -382
-387 -386
382 386 387
-388 1
-388 23
-1 -23 388
-389 2
-389 23
-2 -23 389
-390 -385
-390 -388
385 388 390
-391 385
-391 388
-385 -388 391
-392 -390
-392 -391
390 391 392
-393 -385
-393 388
385 -388 393
-394 -387
-394 -389
387 389 394
-395 387
-395 389
-387 -389 395
-396 -394
-396 -395
394 395 396
-397 -387
-397 389
387 -389 397
-398 -393
-398 -396
393 396 398
-399 393
-399 396
-393 -396 399
-400 -398
-400 -399
398 399 400
-401 393
-401 -396
-393 396 401
-402 -397
-402 -401
397 401 402
-403 1
-403 24
-1 -24 403
-404 2
-404 24
-2 -24 404
-405 -400
-405 -403
400 403 405
-406 400
-406 403
-400 -403 406
-407 -405
-407 -406
405 406 407
-408 -400
-408 403
400 -403 408
-409 -402
-409 -404
402 404 409
-410 402
-410 404
-402 -404 410
-411 -409
-411 -410
409 410 411
-412 -402
-412 404
402 -404 412
-413 -408
-413 -411
408 411 413
-414 408
-414 411
-408 -411 414
-415 -413
-415 -414
413 414 415
-416 408
-416 -411
-408 411 416
-417 -412
-417 -416
412 416 417
-418 1
-418 25
-1 -25 418
-419 2
-419 25
-2 -25 419
-420 -415
-420 -418
415 418 420
-421 415
-421 418
-415 -418 421
-422 -420
-422 -421
420 421 422
-423 -415
-423 418
415 -418 423
-424 -417
-424 -419
417 419 424
-425 417
-425 419
-417 -419 425
-426 -424
-426 -425
424 425 426
-427 -417
-427 419
417 -419 427
-428 -423
-428 -426
423 426 428
-429 423
-429 426
-423 -426 429
-430 -428
-430 -429
428 429 430
-431 423
-431 -426
-423 426 431
-432 -427
-432 -431
427 431 432
-433 1
-433 26
-1 -26 433
-434 2
-434 26
-2 -26 434
-435 -430
-435 -433
430 433 435
-436 430
-436 433
-430 -433 436
-437 -435
-437 -436
435 436 437
-438 -430
-438 433
430 -433 438
-439 -432
-439 -434
432 434 439
-440 432
-440 434
-432 -434 440
-441 -439
-441 -440
439 440 441
-442 -432
-442 434
432 -434 442
-443 -438
-443 -441
438 441 443
-444 438
-444 441
-438 -441 444
-445 -443
-445 -444
443 444 445
-446 438
-446 -441
-438 441 446
-447 -442
-447 -446
442 446 447
-448 1
-448 27
-1 -27 448
-449 2
-449 27
-2 -27 449
-450 -445
-450 -448
445 448 450
-451 445
-451 448
-445 -448 451
-452 -450
-452 -451
450 451 452
-453 -445
-453 448
445 -448 453
-454 -447
-454 -449
447 449 454
-455 447
-455 449
-447 -449 455
-456 -454
-456 -455
454 455 456
-457 -447
-457 449
447 -449 457
-458 -453
-458 -456
453 456 458
-459 453
-459 456
-453 -456 459
-460 -458
-460 -459
458 459 460
-461 453
-461 -456
-453 456 461
-462 -457
-462 -461
457 461 462
-463 1
-463 28
-1 -28 463
-464 2
-464 28
-2 -28 464
-465 -460
-465 -463
460 463 465
-466 460
-466 463
-460 -463 466
-467 -465
-467 -466
465 466 467
-468 -460
-468 463
460 -463 468
-469 -462
-469 -464
462 464 469
-470 462
-470 464
-462 -464 470
-471 -469
-471 -470
469 470 471
-472 -462
-472 464
462 -464 472
-473 -468
-473 -471
468 471 473
-474 468
-474 471
-468 -471 474
-475 -473
-475 -474
473 474 475
-476 468
-476 -471
-468 471 476
-477 -472
-477 -476
472 476 477
-478 1
-478 29
-1 -29 478
-479 2
-479 29
-2 -29 479
-480 -475
-480 -478
475 478 480
-481 475
-481 478
-475 -478 481
-482 -480
-482 -481
480 481 482
-483 -475
-483 478
475 -478 483
-484 -477
-484 -479
477 479 484
-485 477
-485 479
-477 -479 485
-486 -484
-486 -485
484 485 486
-487 -477
-487 479
477 -479 487
-488 -483
-488 -486
483 486 488
-489 483
-489 486
-483 -486 489
-490 -488
-490 -489
488 489 490
-491 483
-491 -486
-483 486 491
-492 -487
-492 -491
487 491 492
-493 1
-493 30
-1 -30 493
-494 2
-494 30
-2 -30 494
-495 -490
-495 -493
490 493 495
-496 490
-496 493
-490 -493 496
-497 -495
-497 -496
495 496 497
-498 -490
-498 493
490 -493 498
-499 -492
-499 -494
492 494 499
-500 492
-500 494
-492 -494 500
-501 -499
-501 -500
499 500 501
-502 -492
-502 494
492 -494 502
-503 -498
-503 -501
498 501 503
-504 498
-504 501
-498 -501 504
-505 -503
-505 -504
503 504 505
-506 498
-506 -501
-498 501 506
-507 -502
-507 -506
502 506 507
-508 1
-508 31
-1 -31 508
-509 2
-509 31
-2 -31 509
-510 -505
-510 -508
505 508 510
-511 505
-511 508
-505 -508 511
-512 -510
-512 -511
510 511 512
-513 -505
-513 508
505 -508 513
-514 -507
-514 -509
507 509 514
-515 507
-515 509
-507 -509 515
-516 -514
-516 -515
514 515 516
-517 -507
-517 509
507 -509 517
-518 -513
-518 -516
513 516 518
-519 513
-519 516
-513 -516 519
-520 -518
-520 -519
518 519 520
-521 513
-521 -516
-513 516 521
-522 -517
-522 -521
517 521 522
-523 1
-523 32
-1 -32 523
-524 2
-524 32
-2 -32 524
-525 -520
-525 -523
520 523 525
-526 520
-526 523
-520 -523 526
-527 -525
-527 -526
525 526 527
-528 -520
-528 523
520 -523 528
-529 -522
-529 -524
522 524 529
-530 522
-530 524
-522 -524 530
-531 -529
-531 -530
529 530 531
-532 -522
-532 524
522 -524 532
-533 -528
-533 -531
528 531 533
-534 528
-534 531
-528 -531 534
-535 -533
-535 -534
533 534 535
-536 528
-536 -531
-528 531 536
-537 -532
-537 -536
532 536 537
-538 1
-538 33
-1 -33 538
-539 2
-539 33
-2 -33 539
-540 -535
-540 -538
535 538 540
-541 535
-541 538
-535 -538 541
-542 -540
-542 -541
540 541 542
-543 -535
-543 538
535 -538 543
-544 -537
-544 -539
537 539 544
-545 537
-545 539
-537 -539 545
-546 -544
-546 -545
544 545 546
-547 -537
-547 539
537 -539 547
-548 -543
-548 -546
543 546 548
-549 543
-549 546
-543 -546 549
-550 -548
-550 -549
548 549 550
-551 543
-551 -546
-543 546 551
-552 -547
-552 -551
547 551 552
-553 1
-553 34
-1 -34 553
-554 2
-554 34
-2 -34 554
-555 -550
-555 -553
550 553 555
-556 550
-556 553
-550 -553 556
-557 -555
-557 -556
555 556 557
-558 -550
-558 553
550 -553 558
-559 -552
-559 -554
552 554 559
-560 552
-560 554
-552 -554 560
-561 -559
-561 -560
559 560 561
-562 -552
-562 554
552 -554 562
-563 -558
-563 -561
558 561 563
-564 558
-564 561
-558 -561 564
-565 -563
-565 -564
563 564 565
-566 558
-566 -561
-558 561 566
-567 -562
-567 -566
562 566 567
-568 1
-568 35
-1 -35 568
-569 2
-569 35
-2 -35 569
-570 -565
-570 -568
565 568 570
-571 565
-571 568
-565 -568 571
-572 -570
-572 -571
570 571 572
-573 -565
-573 568
565 -568 573
-574 -567
-574 -569
567 569 574
-575 567
-575 569
-567 -569 575
-576 -574
-576 -575
574 575 576
-577 -567
-577 569
567 -569 577
-578 -573
-578 -576
573 576 578
-579 573
-579 576
-573 -576 579
-580 -578
-580 -579
578 579 580
-581 573
-581 -576
-573 576 581
-582 -577
-582 -581
577 581 582
-583 1
-583 36
-1 -36 583
-584 2
-584 36
-2 -36 584
-585 -580
-585 -583
580 583 585
-586 580
-586 583
-580 -583 586
-587 -585
-587 -586
585 586 587
-588 -580
-588 583
580 -583 588
-589 -582
-589 -584
582 584 589
-590 582
-590 584
-582 -584 590
-591 -589
-591 -590
589 590 591
-592 -582
-592 584
582 -584 592
-593 -588
-593 -591
588 591 593
-594 588
-594 591
-588 -591 594
-595 -593
-595 -594
593 594 595
-596 588
-596 -591
-588 591 596
-597 -592
-597 -596
592 596 597
-598 1
-598 37
-1 -37 598
-599 2
-599 37
-2 -37 599
-600 -595
-600 -598
595 598 600
-601 595
-601 598
-595 -598 601
-602 -600
-602 -601
600 601 602
-603 -595
-603 598
595 -598 603
-604 -597
-604 -599
597 599 604
-605 597
-605 599
-597 -599 605
-606 -604
-606 -605
604 605 606
-607 -597
-607 599
597 -599 607
-608 -603
-608 -606
603 606 608
-609 603
-609 606
-603 -606 609
-610 -608
-610 -609
608 609 610
-611 603
-611 -606
-603 606 611
-612 -607
-612 -611
607 611 612
-613 1
-613 38
-1 -38 613
-614 2
-614 38
-2 -38 614
-615 -610
-615 -613
610 613 615
-616 610
-616 613
-610 -613 616
-617 -615
-617 -616
615 616 617
-618 -610
-618 613
610 -613 618
-619 -612
-619 -614
612 614 619
-620 612
-620 614
-612 -614 620
-621 -619
-621 -620
619 620 621
-622 -612
-622 614
612 -614 622
-623 -618
-623 -621
618 621 623
-624 618
-624 621
-618 -621 624
-625 -623
-625 -624
623 624 625
-626 618
-626 -621
-618 621 626
-627 -622
-627 -626
622 626 627
-628 1
-628 39
-1 -39 628
-629 2
-629 39
-2 -39 629
-630 -625
-630 -628
625 628 630
-631 625
-631 628
-625 -628 631
-632 -630
-632 -631
630 631 632
-633 -625
-633 628
625 -628 633
-634 -627
-634 -629
627 629 634
-635 627
-635 629
-627 -629 635
-636 -634
-636 -635
634 635 636
-637 -627
-637 629
627 -629 637
-638 -633
-638 -636
633 636 638
-639 633
-639 636
-633 -636 639
-640 -638
-640 -639
638 639 640
-641 633
-641 -636
-633 636 641
-642 -637
-642 -641
637 641 642
-643 1
-643 40
-1 -40 643
-644 2
-644 40
-2 -40 644
-645 -640
-645 -643
640 643 645
-646 640
-646 643
-640 -643 646
-647 -645
-647 -646
645 646 647
-648 -640
-648 643
640 -643 648
-649 -642
-649 -644
642 644 649
-650 642
-650 644
-642 -644 650
-651 -649
-651 -650
649 650 651
-652 -642
-652 644
642 -644 652
-653 -648
-653 -651
648 651 653
-654 648
-654 651
-648 -651 654
-655 -653
-655 -654
653 654 655
-656 648
-656 -651
-648 651 656
-657 -652
-657 -656
652 656 657
-658 1
-658 41
-1 -41 658
-659 2
-659 41
-2 -41 659
-660 -655
-660 -658
655 658 660
-661 655
-661 658
-655 -658 661
-662 -660
-662 -661
660 661 662
-663 -655
-663 658
655 -658 663
-664 -657
-664 -659
657 659 664
-665 657
-665 659
-657 -659 665
-666 -664
-666 -665
664 665 666
-667 -657
-667 659
657 -659 667
-668 -663
-668 -666
663 666 668
-669 663
-669 666
-663 -666 669
-670 -668
-670 -669
668 669 670
-671 663
-671 -666
-663 666 671
-672 -667
-672 -671
667 671 672
-673 1
-673 42
-1 -42 673
-674 2
-674 42
-2 -42 674
-675 -670
-675 -673
670 673 675
-676 670
-676 673
-670 -673 676
-677 -675
-677 -676
675 676 677
-678 -670
-678 673
670 -673 678
-679 -672
-679 -674
672 674 679
-680 672
-680 674
-672 -674 680
-681 -679
-681 -680
679 680 681
-682 -672
-682 674
672 -674 682
-683 -678
-683 -681
678 681 683
-684 678
-684 681
-678 -681 684
-685 -683
-685 -684
683 684 685
-686 678
-686 -681
-678 681 686
-687 -682
-687 -686
682 686 687
-688 1
-688 43
-1 -43 688
-689 2
-689 43
-2 -43 689
-690 -685
-690 -688
685 688 690
-691 685
-691 688
-685 -688 691
-692 -690
-692 -691
690 691 692
-693 -685
-693 688
685 -688 693
-694 -687
-694 -689
687 689 694
-695 687
-695 689
-687 -689 695
-696 -694
-696 -695
694 695 696
-697 -687
-697 689
687 -689 697
-698 -693
-698 -696
693 696 698
-699 693
-699 696
-693 -696 699
-700 -698
-700 -699
698 699 700
-701 693
-701 -696
-693 696 701
-702 -697
-702 -701
697 701 702
-703 1
-703 44
-1 -44 703
-704 2
-704 44
-2 -44 704
-705 -700
-705 -703
700 703 705
-706 700
-706 703
-700 -703 706
-707 -705
-707 -706
705 706 707
-708 -700
-708 703
700 -703 708
-709 -702
-709 -704
702 704 709
-710 702
-710 704
-702 -704 710
-711 -709
-711 -710
709 710 711
-712 -702
-712 704
702 -704 712
-713 -708
-713 -711
708 711 713
-714 708
-714 711
-708 -711 714
-715 -713
-715 -714
713 714 715
-716 708
-716 -711
-708 711 716
-717 -712
-717 -716
712 716 717
-718 1
-718 45
-1 -45 718
-719 2
-719 45
-2 -45 719
-720 -715
-720 -718
715 718 720
-721 715
-721 718
-715 -718 721
-722 -720
-722 -721
720 721 722
-723 -715
-723 718
715 -718 723
-724 -717
-724 -719
717 719 724
-725 717
-725 719
-717 -719 725
-726 -724
-726 -725
724 725 726
-727 -717
-727 719
717 -719 727
-728 -723
-728 -726
723 726 728
-729 723
-729 726
-723 -726 729
-730 -728
-730 -729
728 729 730
-731 723
-731 -726
-723 726 731
-732 -727
-732 -731
727 731 732
-733 1
-733 46
-1 -46 733
-734 2
-734 46
-2 -46 734
-735 -730
-735 -733
730 733 735
-736 730
-736 733
-730 -733 736
-737 -735
-737 -736
735 736 737
-738 -730
-738 733
730 -733 738
-739 -732
-739 -734
732 734 739
-740 732
-740 734
-732 -734 740
-741 -739
-741 -740
739 740 741
-742 -732
-742 734
732 -734 742
-743 -738
-743 -741
738 741 743
-744 738
-744 741
-738 -741 744
-745 -743
-745 -744
743 744 745
-746 738
-746 -741
-738 741 746
-747 -742
-747 -746
742 746 747
-748 1
-748 47
-1 -47 748
-749 2
-749 47
-2 -47 749
-750 -745
-750 -748
745 748 750
-751 745
-751 748
-745 -748 751
-752 -750
-752 -751
750 751 752
-753 -745
-753 748
745 -748 753
-754 -747
-754 -749
747 749 754
-755 747
-755 749
-747 -749 755
-756 -754
-756 -755
754 755 756
-757 -747
-757 749
747 -749 757
-758 -753
-758 -756
753 756 758
-759 753
-759 756
-753 -756 759
-760 -758
-760 -759
758 759 760
-761 753
-761 -756
-753 756 761
-762 -757
-762 -761
757 761 762
-763 1
-763 48
-1 -48 763
-764 2
-764 48
-2 -48 764
-765 -760
-765 -763
760 763 765
-766 760
-766 763
-760 -763 766
-767 -765
-767 -766
765 766 767
-768 -760
-768 763
760 -763 768
-769 -762
-769 -764
762 764 769
-770 762
-770 764
-762 -764 770
-771 -769
-771 -770
769 770 771
-772 -762
-772 764
762 -764 772
-773 -768
-773 -771
768 771 773
-774 768
-774 771
-768 -771 774
-775 -773
-775 -774
773 774 775
-776 768
-776 -771
-768 771 776
-777 -772
-777 -776
772 776 777
-778 1
-778 49
-1 -49 778
-779 2
-779 49
-2 -49 779
-780 -775
-780 -778
775 778 780
-781 775
-781 778
-775 -778 781
-782 -780
-782 -781
780 781 782
-783 -775
-783 778
775 -778 783
-784 -777
-784 -779
777 779 784
-785 777
-785 779
-777 -779 785
-786 -784
-786 -785
784 785 786
-787 -777
-787 779
777 -779 787
-788 -783
-788 -786
783 786 788
-789 783
-789 786
-783 -786 789
-790 -788
-790 -789
788 789 790
-791 783
-791 -786
-783 786 791
-792 -787
-792 -791
787 791 792
-793 1
-793 50
-1 -50 793
-794 2
-794 50
-2 -50 794
-795 -790
-795 -793
790 793 795
-796 790
-796 793
-790 -793 796
-797 -795
-797 -796
795 796 797
-798 -790
-798 793
790 -793 798
-799 -792
-799 -794
792 794 799
-800 792
-800 794
-792 -794 800
-801 -799
-801 -800
799 800 801
-802 -792
-802 794
792 -794 802
-803 -798
-803 -801
798 801 803
-804 798
-804 801
-798 -801 804
-805 -803
-805 -804
803 804 805
-806 798
-806 -801
-798 801 806
-807 -802
-807 -806
802 806 807
-808 1
-808 51
-1 -51 808
-809 2
-809 51
-2 -51 809
-810 -805
-810 -808
805 808 810
-811 805
-811 808
-805 -808 811
-812 -810
-812 -811
810 811 812
-813 -805
-813 808
805 -808 813
-814 -807
-814 -809
807 809 814
-815 807
-815 809
-807 -809 815
-816 -814
-816 -815
814 815 816
-817 -807
-817 809
807 -809 817
-818 -813
-818 -816
813 816 818
-819 813
-819 816
-813 -816 819
-820 -818
-820 -819
818 819 820
-821 813
-821 -816
-813 816 821
-822 -817
-822 -821
817 821 822
-823 1
-823 52
-1 -52 823
-824 2
-824 52
-2 -52 824
-825 -820
-825 -823
820 823 825
-826 820
-826 823
-820 -823 826
-827 -825
-827 -826
825 826 827
-828 -820
-828 823
820 -823 828
-829 -822
-829 -824
822 824 829
-830 822
-830 824
-822 -824 830
-831 -829
-831 -830
829 830 831
-832 -822
-832 824
822 -824 832
-833 -828
-833 -831
828 831 833
-834 828
-834 831
-828 -831 834
-835 -833
-835 -834
833 834 835
-836 828
-836 -831
-828 831 836
-837 -832
-837 -836
832 836 837
-838 1
-838 53
-1 -53 838
-839 2
-839 53
-2 -53 839
-840 -835
-840 -838
835 838 840
-841 835
-841 838
-835 -838 841
-842 -840
-842 -841
840 841 842
-843 -835
-843 838
835 -838 843
-844 -837
-844 -839
837 839 844
-845 837
-845 839
-837 -839 845
-846 -844
-846 -845
844 845 846
-847 -837
-847 839
837 -839 847
-848 -843
-848 -846
843 846 848
-849 843
-849 846
-843 -846 849
-850 -848
-850 -849
848 849 850
-851 843
-851 -846
-843 846 851
-852 -847
-852 -851
847 851 852
-853 1
-853 54
-1 -54 853
-854 2
-854 54
-2 -54 854
-855 -850
-855 -853
850 853 855
-856 850
-856 853
-850 -853 856
-857 -855
-857 -856
855 856 857
-858 -850
-858 853
850 -853 858
-859 -852
-859 -854
852 854 859
-860 852
-860 854
-852 -854 860
-861 -859
-861 -860
859 860 861
-862 -852
-862 854
852 -854 862
-863 -858
-863 -861
858 861 863
-864 858
-864 861
-858 -861 864
-865 -863
-865 -864
863 864 865
-866 858
-866 -861
-858 861 866
-867 -862
-867 -866
862 866 867
-868 865
-868 867
-865 -867 868
-869 -105
-869 868
105 -868 869
-870 106
-870 869
-106 -869 870
-871 869
-871 -870
-869 870 871
-872 -112
-872 869
112 -869 872
-873 -122
-873 869
122 -869 873
-874 -137
-874 869
137 -869 874
-875 -152
-875 869
152 -869 875
-876 -167
-876 869
167 -869 876
-877 -182
-877 869
182 -869 877
-878 -197
-878 869
197 -869 878
-879 -212
-879 869
212 -869 879
-880 -227
-880 869
227 -869 880
-881 -242
-881 869
242 -869 881
-882 -257
-882 869
257 -869 882
-883 -272
-883 869
272 -869 883
-884 -287
-884 869
287 -869 884
-885 -302
-885 869
302 -869 885
-886 -317
-886 869
317 -869 886
-887 -332
-887 869
332 -869 887
-888 -347
-888 869
347 -869 888
-889 -362
-889 869
362 -869 889
-890 -377
-890 869
377 -869 890
-891 -392
-891 869
392 -869 891
-892 -407
-892 869
407 -869 892
-893 -422
-893 869
422 -869 893
-894 -437
-894 869
437 -869 894
-895 -452
-895 869
452 -869 895
-896 -467
-896 869
467 -869 896
-897 -482
-897 869
482 -869 897
-898 -497
-898 869
497 -869 898
-899 -512
-899 869
512 -869 899
-900 -527
-900 869
527 -869 900
-901 -542
-901 869
542 -869 901
-902 -557
-902 869
557 -869 902
-903 -572
-903 869
572 -869 903
-904 -587
-904 869
587 -869 904
-905 -602
-905 869
602 -869 905
-906 -617
-906 869
617 -869 906
-907 -632
-907 869
632 -869 907
-908 -647
-908 869
647 -869 908
-909 -662
-909 869
662 -869 909
-910 -677
-910 869
677 -869 910
-911 -692
-911 869
692 -869 911
-912 -707
-912 869
707 -869 912
-913 -722
-913 869
722 -869 913
-914 -737
-914 869
737 -869 914
-915 -752
-915 869
752 -869 915
-916 -767
-916 869
767 -869 916
-917 -782
-917 869
782 -869 917
-918 -797
-918 869
797 -869 918
-919 -812
-919 869
812 -869 919
-920 -827
-920 869
827 -869 920
-921 -842
-921 869
842 -869 921
-922 -857
-922 869
857 -869 922
-923 -106
-923 112
106 -112 923
-924 122
-924 137
-122 -137 924
-925 152
-925 167
-152 -167 925
-926 182
-926 197
-182 -197 926
-927 212
-927 227
-212 -227 927
-928 242
-928 257
-242 -257 928
-929 272
-929 287
-272 -287 929
-930 302
-930 317
-302 -317 930
-931 332
-931 347
-332 -347 931
-932 362
-932 377
-362 -377 932
-933 -392
-933 407
392 -407 933
-934 422
-934 437
-422 -437 934
-935 -452
-935 467
452 -467 935
-936 482
-936 -497
-482 497 936
-937 -512
-937 -527
512 527 937
-938 542
-938 -557
-542 557 938
-939 -572
-939 587
572 -587 939
-940 602
-940 617
-602 -617 940
-941 632
-941 647
-632 -647 941
-942 -662
-942 677
662 -677 942
-943 -692
-943 707
692 -707 943
-944 -722
-944 -737
722 737 944
-945 -752
-945 -767
752 767 945
-946 -782
-946 -797
782 797 946
-947 812
-947 827
-812 -827 947
-948 -842
-948 -857
842 857 948
-949 923
-949 924
-923 -924 949
-950 925
-950 926
-925 -926 950
-951 927
-951 928
-927 -928 951
-952 929
-952 930
-929 -930 952
-953 931
-953 932
-931 -932 953
-954 933
-954 934
-933 -934 954
-955 935
-955 936
-935 -936 955
-956 937
-956 938
-937 -938 956
-957 939
-957 940
-939 -940 957
-958 941
-958 942
-941 -942 958
-959 943
-959 944
-943 -944 959
-960 945
-960 946
-945 -946 960
-961 947
-961 948
-947 -948 961
-962 949
-962 950
-949 -950 962
-963 951
-963 952
-951 -952 963
-964 953
-964 954
-953 -954 964
-965 955
-965 956
-955 -956 965
-966 957
-966 958
-957 -958 966
-967 959
-967 960
-959 -960 967
-968 962
-968 963
-962 -963 968
-969 964
-969 965
-964 -965 969
-970 966
-970 967
-966 -967 970
-971 968
-971 969
-968 -969 971
-972 961
-972 970
-961 -970 972
-973 971
-973 972
-971 -972 973
-974 868
-974 973
-868 -973 974
974
